NAME          SUPERMARKET
ROWS
 N   O2
 L   C0
 L   C1
 L   C2
 L   C3
 L   C4
 L   C5
 L   C6
 L   C7
 L   C8
 L   C9
 L   C10
 L   C11
 L   C12
 L   C13
 L   C14
 L   C15
 L   C16
 L   C17
 L   C18
 L   C19
 L   C20
 E   C21
 E   C22
 E   C23
 E   C24
 E   C25
 E   C26
 E   C27
 E   C28
 E   C29
 E   C30
 E   C31
 E   C32
 E   C33
 E   C34
 E   C35
 E   C36
 E   C37
 E   C38
 E   C39
 E   C40
 E   C41
 E   C42
 E   C43
 E   C44
 E   C45
 E   C46
 E   C47
 E   C48
 E   C49
 E   C50
 E   C51
 E   C52
 E   C53
 E   C54
 E   C55
 E   C56
 E   C57
 E   C58
 E   C59
 E   C60
 E   C61
 E   C62
 E   C63
 E   C64
 E   C65
 E   C66
 E   C67
 E   C68
 E   C69
COLUMNS
    V0        C21       1.0
    V0        C22       -9.72
    V0        O2        1
    V1        C22       1
    V1        C69       -1
    V2        C23       1.0
    V2        C24       -36.11
    V2        O2        1
    V3        C24       1
    V3        C69       -1
    V4        C25       1.0
    V4        C26       -8.89
    V4        O2        1
    V5        C26       1
    V5        C69       -1
    V6        C27       -1.0
    V6        O1        1
    V7        C28       1.0
    V7        O2        1
    V8        C29       1.0
    V8        O2        1
    V9        C30       -1.0
    V9        C0        -1.0
    V10       C31       -1.0
    V10       C1        -1.0
    V11       C32       -1.0
    V11       C2        -1.0
    V12       C3        -1
    V12       C4        1
    V12       C33       -12.5
    V12       C13       -1
    X13       C3        100.0
    X13       C4        -1000000.0
    V14       C33       1
    V14       C69       -1
    V15       C34       -15.0
    V15       C13       1
    V15       C47       -1
    V15       C49       -188.89039999999997
    V15       C50       -100.0
    V16       C34       1
    V16       C69       -1
    V17       C5        -1
    V17       C6        1
    V17       C35       -25.0
    V17       C14       -1
    X18       C5        800.0
    X18       C6        -1000000.0
    V19       C35       1
    V19       C69       -1
    V20       C36       1
    V20       C69       -1
    V21       C36       -15.0
    V21       C14       1
    V21       C51       -1
    V21       C52       -122.22319999999999
    V21       C54       -77.77839999999999
    V21       C55       -56.0
    V22       C7        1
    V22       C8        -1
    V22       C37       -100.0
    V22       C15       -1
    X23       C7        -300.0
    X23       C8        10.0
    V24       C37       1
    V24       C69       -1
    V25       C38       1
    V25       C69       -1
    V26       C38       -500.0
    V26       C15       1
    V26       C56       -1
    V26       C57       -25.000199999999996
    V27       C9        1
    V27       C10       -1
    V27       C39       -100.0
    V27       C16       -1
    X28       C9        -500.0
    X28       C10       10.0
    V29       C39       1
    V29       C69       -1
    V30       C40       1
    V30       C69       -1
    V31       C40       -1200.0
    V31       C16       1
    V31       C58       -1
    V31       C59       -61.111599999999996
    V32       C11       1
    V32       C17       -1
    V33       C12       1
    V33       C41       -4.0
    V33       C18       -1
    V34       C41       1
    V34       C69       -1
    V35       C42       1
    V35       C69       -1
    V36       C42       -85.0
    V36       C18       1
    V36       C63       -1
    V36       C64       -3.0
    V37       C43       1
    V37       C69       -1
    V38       C43       -0.5
    V38       C19       -1
    V39       C44       1
    V39       C69       -1
    V40       C44       -30.0
    V40       C19       1
    V40       C65       -1
    V40       C66       -0.7
    V41       C45       1
    V41       C69       -1
    V42       C45       -0.05
    V42       C20       -1
    V43       C46       1
    V43       C69       -1
    V44       C46       -3.0
    V44       C20       1
    V44       C67       -1
    V44       C68       -0.04
    V45       C21       -1
    V45       C47       1
    V46       C48       1.0
    V46       C49       1
    V47       C27       1
    V47       C50       1
    V48       C25       -1
    V48       C51       1
    V49       C48       1
    V49       C52       1
    V50       C53       1.0
    V50       C54       1
    V51       C27       1
    V51       C55       1
    V52       C28       -1
    V52       C56       1
    V53       C48       1
    V53       C57       1
    V54       C29       -1
    V54       C58       1
    V55       C48       1
    V55       C59       1
    V56       C17       1
    V56       C60       -1
    V56       C61       -277.78
    V56       C62       -90.0
    V57       C23       -1
    V57       C60       1
    V58       C48       1
    V58       C61       1
    V59       C27       1
    V59       C62       1
    V60       C48       -1
    V60       C63       1
    V61       C31       1
    V61       C64       1
    V62       C48       -1
    V62       C65       1
    V63       C30       1
    V63       C66       1
    V64       C53       -1
    V64       C67       1
    V65       C32       1
    V65       C68       1
    V66       C69       1
    V66       O0        1
RHS
    RHS0      C0        -200.0
    RHS1      C1        -1000.0
    RHS2      C2        -100.0
    RHS3      C3        0
    RHS4      C4        0
    RHS5      C5        0
    RHS6      C6        0
    RHS7      C7        0
    RHS8      C8        0
    RHS9     C9        0
    RHS10     C10       0
    RHS11     C11       100000.0
    RHS12     C12       100000.0
    RHS13     C13       0
    RHS14     C14       0
    RHS15     C15       0
    RHS16     C16       0
    RHS17     C17       0
    RHS18     C18       0
    RHS19     C19       0
    RHS20     C20       0
    RHS21     C21       0
    RHS22     C22       0
    RHS23     C23       0
    RHS24     C24       0
    RHS25     C25       0
    RHS26     C26       0
    RHS27     C27       0
    RHS28     C28       0
    RHS29     C29       0
    RHS30     C30       0
    RHS31     C31       0
    RHS32     C32       0
    RHS33     C33       0
    RHS34     C34       0
    RHS35     C35       0
    RHS36     C36       0
    RHS37     C37       0
    RHS38     C38       0
    RHS39     C39       0
    RHS40     C40       0
    RHS41     C41       0
    RHS42     C42       0
    RHS43     C43       0
    RHS44     C44       0
    RHS45     C45       0
    RHS46     C46       0
    RHS47     C47       0
    RHS48     C48       0
    RHS49     C49       0
    RHS50     C50       0
    RHS51     C51       0
    RHS52     C52       0
    RHS53     C53       0
    RHS54     C54       0
    RHS55     C55       0
    RHS56     C56       0
    RHS57     C57       0
    RHS58     C58       0
    RHS59     C59       0
    RHS60     C60       0
    RHS61     C61       0
    RHS62     C62       0
    RHS63     C63       0
    RHS64     C64       0
    RHS65     C65       0
    RHS66     C66       0
    RHS67     C67       0
    RHS68     C68       0
    RHS69     C69       0
BOUNDS
 LO BND1    V0        0
 LO BND1    V1        0
 LO BND1    V2        0
 LO BND1    V3        0
 LO BND1    V4        0
 LO BND1    V5        0
 LO BND1    V6        0
 LO BND1    V7        0
 LO BND1    V8        0
 LO BND1    V9        0
 LO BND1    V10        0
 LO BND1    V11        0
 LO BND1    V12        0
 LO BND1    X13        0
 LO BND1    V14        0
 LO BND1    V15        0
 LO BND1    V16        0
 LO BND1    V17        0
 LO BND1    X18        0
 LO BND1    V19        0
 LO BND1    V20        0
 LO BND1    V21        0
 LO BND1    V22        0
 LO BND1    X23        0
 LO BND1    V24        0
 LO BND1    V25        0
 LO BND1    V26        0
 LO BND1    V27        0
 LO BND1    X28        0
 LO BND1    V29        0
 LO BND1    V30        0
 LO BND1    V31        0
 LO BND1    V32        0
 LO BND1    V33        0
 LO BND1    V34        0
 LO BND1    V35        0
 LO BND1    V36        0
 LO BND1    V37        0
 LO BND1    V38        0
 LO BND1    V39        0
 LO BND1    V40        0
 LO BND1    V41        0
 LO BND1    V42        0
 LO BND1    V43        0
 LO BND1    V44        0
 LO BND1    V45        0
 LO BND1    V46        0
 LO BND1    V47        0
 LO BND1    V48        0
 LO BND1    V49        0
 LO BND1    V50        0
 LO BND1    V51        0
 LO BND1    V52        0
 LO BND1    V53        0
 LO BND1    V54        0
 LO BND1    V55        0
 LO BND1    V56        0
 LO BND1    V57        0
 LO BND1    V58        0
 LO BND1    V59        0
 LO BND1    V60        0
 LO BND1    V61        0
 LO BND1    V62        0
 LO BND1    V63        0
 LO BND1    V64        0
 LO BND1    V65        0
 LO BND1    V66        0
 BV BND1     X13
 BV BND1     X18
 BV BND1     X23
 BV BND1     X28
ENDATA